p min 14 20
n 13 -1
n 14 1
a 2 3 0 1 0
a 2 8 0 1 -100
a 3 4 0 1 0
a 3 6 0 1 -99535
a 3 9 0 1 -100
a 4 5 0 1 0
a 4 10 0 1 -100
a 5 6 0 1 0
a 5 11 0 1 -100
a 6 12 0 1 -100
a 7 8 0 1 -100
a 8 9 0 1 -100
a 9 10 0 1 -100
a 10 11 0 1 -100
a 11 12 0 1 -100
a 12 13 0 1 -100
a 14 2 0 1 -1001000
a 14 3 0 1 -1101100
a 14 4 0 1 -1011000
a 14 5 0 1 -1111100
